NAME : XML100_1174_02
DIMENSION : 101
NB_CLUSTERS : 5
CLUSTERING_ALG : KMedoids
CLUSTERING_PARAMS : k(4)
CLUSTERS
1 0
2 3 7 8 9 16 20 22 23 24 30 31 33 40 43 45 47 48 52 54 59 61 67 76 77 78 81 86 92 95 97 100
3 1 4 5 11 12 17 21 26 29 32 34 35 38 50 53 57 62 64 69 84 89 90
4 6 10 14 19 25 28 36 39 42 46 49 58 63 65 70 71 73 83 85 87 91 93 94 98 99
5 2 13 15 18 27 37 41 44 51 55 56 60 66 68 72 74 75 79 80 82 88 96
EOF